\ This file has been generated by DOcplex
\ ENCODING=ISO-8859-1
\Problem name: random_problem.lp

Minimize
 obj: - 698 x0 - 349 x1 + 586 x2 + 293 x3 + 200 x4 + 100 x5 + [ 472 x0^2
      + 472 x0*x1 + 336 x0*x2 + 168 x0*x3 + 224 x0*x4 + 112 x0*x5 + 118 x1^2
      + 168 x1*x2 + 84 x1*x3 + 112 x1*x4 + 56 x1*x5 + 1240 x2^2 + 1240 x2*x3
      + 128 x2*x4 + 64 x2*x5 + 310 x3^2 + 64 x3*x4 + 32 x3*x5 + 808 x4^2
      + 808 x4*x5 + 202 x5^2 ]/2
Subject To
 c0: 2 x0 + x1 + 2 x2 + x3 + 2 x4 + x5 = 3

Bounds
 0 <= x0 <= 1
 0 <= x1 <= 1
 0 <= x2 <= 1
 0 <= x3 <= 1
 0 <= x4 <= 1
 0 <= x5 <= 1

Binaries
 x0 x1 x2 x3 x4 x5
End
